NAME RRP
ROWS
 N  OBJ
 E  R0      
 E  R1      
 E  R2      
 E  R3      
 E  R4      
 E  R5      
 E  R6      
 E  R7      
 E  R8      
 E  R9      
 E  R10     
 E  R11     
 E  R12     
 E  R13     
 E  R14     
 E  R15     
 E  R16     
 E  R17     
 E  R18     
 E  R19     
 E  R20     
 L  R21     
 L  R22     
 L  R23     
 L  R24     
 L  R25     
 L  R26     
 L  R27     
 L  R28     
 L  R29     
 L  R30     
 L  R31     
 L  R32     
 L  R33     
 L  R34     
 L  R35     
 L  R36     
 L  R37     
 L  R38     
 L  R39     
 L  R40     
 L  R41     
 L  R42     
 L  R43     
 L  R44     
 L  R45     
 L  R46     
 L  R47     
 L  R48     
 L  R49     
 L  R50     
 L  R51     
 L  R52     
 L  R53     
 L  R54     
 L  R55     
 L  R56     
 L  R57     
 L  R58     
 L  R59     
 L  R60     
 L  R61     
 L  R62     
 L  R63     
 L  R64     
 L  R65     
 L  R66     
 L  R67     
 L  R68     
 L  R69     
 L  R70     
 L  R71     
 L  R72     
 L  R73     
 L  R74     
 L  R75     
 L  R76     
 L  R77     
 L  R78     
 L  R79     
 L  R80     
 L  R81     
 L  R82     
 L  R83     
 L  R84     
 L  R85     
 L  R86     
 L  R87     
 L  R88     
 L  R89     
 L  R90     
 L  R91     
 L  R92     
 L  R93     
 L  R94     
 L  R95     
 L  R96     
 G  R97     
 G  R98     
 G  R99     
 L  R100    
 L  R101    
 L  R102    
 G  R103    
 L  R104    
 L  R105    
 L  R106    
 L  R107    
 L  R108    
 L  R109    
COLUMNS
    MARKER    'MARKER'                 'INTORG'
    x_kij[0,0,0]  R2        -1
    x_kij[0,0,0]  R21       1
    x_kij[0,0,1]  OBJ       6
    x_kij[0,0,1]  R0        1
    x_kij[0,0,1]  R2        -1
    x_kij[0,0,1]  R22       1
    x_kij[0,0,1]  R41       100000
    x_kij[0,0,2]  OBJ       8
    x_kij[0,0,2]  R0        1
    x_kij[0,0,2]  R2        -1
    x_kij[0,0,2]  R23       1
    x_kij[0,0,2]  R42       100000
    x_kij[0,0,3]  OBJ       12
    x_kij[0,0,3]  R0        1
    x_kij[0,0,3]  R2        -1
    x_kij[0,0,3]  R24       1
    x_kij[0,0,3]  R43       100000
    x_kij[0,0,4]  OBJ       100
    x_kij[0,0,4]  R2        -1
    x_kij[0,0,4]  R25       1
    x_kij[0,0,4]  R44       100000
    x_kij[0,0,5]  OBJ       100
    x_kij[0,0,5]  R2        -1
    x_kij[0,0,5]  R26       1
    x_kij[0,0,5]  R45       100000
    x_kij[0,0,6]  OBJ       100
    x_kij[0,0,6]  R2        -1
    x_kij[0,0,6]  R27       1
    x_kij[0,0,6]  R46       100000
    x_kij[0,0,7]  OBJ       100
    x_kij[0,0,7]  R0        1
    x_kij[0,0,7]  R28       1
    x_kij[0,0,7]  R47       100000
    x_kij[0,1,0]  OBJ       6
    x_kij[0,1,0]  R2        1
    x_kij[0,1,0]  R3        -1
    x_kij[0,1,0]  R10       1
    x_kij[0,1,0]  R18       1
    x_kij[0,1,0]  R21       1
    x_kij[0,1,0]  R48       100000
    x_kij[0,1,0]  R109      1
    x_kij[0,1,1]  R11       1
    x_kij[0,1,1]  R18       1
    x_kij[0,1,1]  R22       1
    x_kij[0,1,1]  R29       2
    x_kij[0,1,1]  R109      1
    x_kij[0,1,2]  OBJ       7
    x_kij[0,1,2]  R3        -1
    x_kij[0,1,2]  R4        1
    x_kij[0,1,2]  R12       1
    x_kij[0,1,2]  R18       1
    x_kij[0,1,2]  R23       1
    x_kij[0,1,2]  R30       1
    x_kij[0,1,2]  R32       1
    x_kij[0,1,2]  R49       100000
    x_kij[0,1,2]  R109      1
    x_kij[0,1,3]  OBJ       5
    x_kij[0,1,3]  R3        -1
    x_kij[0,1,3]  R5        1
    x_kij[0,1,3]  R13       1
    x_kij[0,1,3]  R18       1
    x_kij[0,1,3]  R24       1
    x_kij[0,1,3]  R31       1
    x_kij[0,1,3]  R35       1
    x_kij[0,1,3]  R50       100000
    x_kij[0,1,3]  R109      1
    x_kij[0,1,4]  OBJ       100
    x_kij[0,1,4]  R3        -1
    x_kij[0,1,4]  R6        1
    x_kij[0,1,4]  R14       1
    x_kij[0,1,4]  R18       1
    x_kij[0,1,4]  R25       1
    x_kij[0,1,4]  R51       100000
    x_kij[0,1,4]  R109      1
    x_kij[0,1,5]  OBJ       15
    x_kij[0,1,5]  R3        -1
    x_kij[0,1,5]  R7        1
    x_kij[0,1,5]  R15       1
    x_kij[0,1,5]  R18       1
    x_kij[0,1,5]  R26       1
    x_kij[0,1,5]  R52       100000
    x_kij[0,1,5]  R109      1
    x_kij[0,1,6]  OBJ       100
    x_kij[0,1,6]  R3        -1
    x_kij[0,1,6]  R8        1
    x_kij[0,1,6]  R16       1
    x_kij[0,1,6]  R18       1
    x_kij[0,1,6]  R27       1
    x_kij[0,1,6]  R53       100000
    x_kij[0,1,6]  R109      1
    x_kij[0,1,7]  OBJ       100
    x_kij[0,1,7]  R9        1
    x_kij[0,1,7]  R17       1
    x_kij[0,1,7]  R18       1
    x_kij[0,1,7]  R28       1
    x_kij[0,1,7]  R54       100000
    x_kij[0,1,7]  R109      1
    x_kij[0,2,0]  OBJ       8
    x_kij[0,2,0]  R2        1
    x_kij[0,2,0]  R4        -1
    x_kij[0,2,0]  R10       1
    x_kij[0,2,0]  R19       1
    x_kij[0,2,0]  R21       1
    x_kij[0,2,0]  R55       100000
    x_kij[0,2,0]  R109      1
    x_kij[0,2,1]  OBJ       7
    x_kij[0,2,1]  R3        1
    x_kij[0,2,1]  R4        -1
    x_kij[0,2,1]  R11       1
    x_kij[0,2,1]  R19       1
    x_kij[0,2,1]  R22       1
    x_kij[0,2,1]  R30       1
    x_kij[0,2,1]  R32       1
    x_kij[0,2,1]  R56       100000
    x_kij[0,2,1]  R109      1
    x_kij[0,2,2]  R12       1
    x_kij[0,2,2]  R19       1
    x_kij[0,2,2]  R23       1
    x_kij[0,2,2]  R33       2
    x_kij[0,2,2]  R109      1
    x_kij[0,2,3]  OBJ       4
    x_kij[0,2,3]  R4        -1
    x_kij[0,2,3]  R5        1
    x_kij[0,2,3]  R13       1
    x_kij[0,2,3]  R19       1
    x_kij[0,2,3]  R24       1
    x_kij[0,2,3]  R34       1
    x_kij[0,2,3]  R36       1
    x_kij[0,2,3]  R57       100000
    x_kij[0,2,3]  R109      1
    x_kij[0,2,4]  OBJ       15
    x_kij[0,2,4]  R4        -1
    x_kij[0,2,4]  R6        1
    x_kij[0,2,4]  R14       1
    x_kij[0,2,4]  R19       1
    x_kij[0,2,4]  R25       1
    x_kij[0,2,4]  R58       100000
    x_kij[0,2,4]  R109      1
    x_kij[0,2,5]  OBJ       100
    x_kij[0,2,5]  R4        -1
    x_kij[0,2,5]  R7        1
    x_kij[0,2,5]  R15       1
    x_kij[0,2,5]  R19       1
    x_kij[0,2,5]  R26       1
    x_kij[0,2,5]  R59       100000
    x_kij[0,2,5]  R109      1
    x_kij[0,2,6]  OBJ       100
    x_kij[0,2,6]  R4        -1
    x_kij[0,2,6]  R8        1
    x_kij[0,2,6]  R16       1
    x_kij[0,2,6]  R19       1
    x_kij[0,2,6]  R27       1
    x_kij[0,2,6]  R60       100000
    x_kij[0,2,6]  R109      1
    x_kij[0,2,7]  OBJ       100
    x_kij[0,2,7]  R9        1
    x_kij[0,2,7]  R17       1
    x_kij[0,2,7]  R19       1
    x_kij[0,2,7]  R28       1
    x_kij[0,2,7]  R61       100000
    x_kij[0,2,7]  R109      1
    x_kij[0,3,0]  OBJ       12
    x_kij[0,3,0]  R2        1
    x_kij[0,3,0]  R5        -1
    x_kij[0,3,0]  R10       1
    x_kij[0,3,0]  R20       1
    x_kij[0,3,0]  R21       1
    x_kij[0,3,0]  R62       100000
    x_kij[0,3,0]  R109      1
    x_kij[0,3,1]  OBJ       5
    x_kij[0,3,1]  R3        1
    x_kij[0,3,1]  R5        -1
    x_kij[0,3,1]  R11       1
    x_kij[0,3,1]  R20       1
    x_kij[0,3,1]  R22       1
    x_kij[0,3,1]  R31       1
    x_kij[0,3,1]  R35       1
    x_kij[0,3,1]  R63       100000
    x_kij[0,3,1]  R109      1
    x_kij[0,3,2]  OBJ       4
    x_kij[0,3,2]  R4        1
    x_kij[0,3,2]  R5        -1
    x_kij[0,3,2]  R12       1
    x_kij[0,3,2]  R20       1
    x_kij[0,3,2]  R23       1
    x_kij[0,3,2]  R34       1
    x_kij[0,3,2]  R36       1
    x_kij[0,3,2]  R64       100000
    x_kij[0,3,2]  R109      1
    x_kij[0,3,3]  R13       1
    x_kij[0,3,3]  R20       1
    x_kij[0,3,3]  R24       1
    x_kij[0,3,3]  R37       2
    x_kij[0,3,3]  R109      1
    x_kij[0,3,4]  OBJ       10
    x_kij[0,3,4]  R5        -1
    x_kij[0,3,4]  R6        1
    x_kij[0,3,4]  R14       1
    x_kij[0,3,4]  R20       1
    x_kij[0,3,4]  R25       1
    x_kij[0,3,4]  R65       100000
    x_kij[0,3,4]  R109      1
    x_kij[0,3,5]  OBJ       7
    x_kij[0,3,5]  R5        -1
    x_kij[0,3,5]  R7        1
    x_kij[0,3,5]  R15       1
    x_kij[0,3,5]  R20       1
    x_kij[0,3,5]  R26       1
    x_kij[0,3,5]  R66       100000
    x_kij[0,3,5]  R109      1
    x_kij[0,3,6]  OBJ       15
    x_kij[0,3,6]  R5        -1
    x_kij[0,3,6]  R8        1
    x_kij[0,3,6]  R16       1
    x_kij[0,3,6]  R20       1
    x_kij[0,3,6]  R27       1
    x_kij[0,3,6]  R67       100000
    x_kij[0,3,6]  R109      1
    x_kij[0,3,7]  OBJ       100
    x_kij[0,3,7]  R9        1
    x_kij[0,3,7]  R17       1
    x_kij[0,3,7]  R20       1
    x_kij[0,3,7]  R28       1
    x_kij[0,3,7]  R68       100000
    x_kij[0,3,7]  R109      1
    x_kij[0,4,0]  OBJ       100
    x_kij[0,4,0]  R2        1
    x_kij[0,4,0]  R6        -1
    x_kij[0,4,0]  R10       -1
    x_kij[0,4,0]  R21       1
    x_kij[0,4,0]  R69       100000
    x_kij[0,4,1]  OBJ       100
    x_kij[0,4,1]  R3        1
    x_kij[0,4,1]  R6        -1
    x_kij[0,4,1]  R11       -1
    x_kij[0,4,1]  R22       1
    x_kij[0,4,1]  R70       100000
    x_kij[0,4,2]  OBJ       15
    x_kij[0,4,2]  R4        1
    x_kij[0,4,2]  R6        -1
    x_kij[0,4,2]  R12       -1
    x_kij[0,4,2]  R23       1
    x_kij[0,4,2]  R71       100000
    x_kij[0,4,3]  OBJ       10
    x_kij[0,4,3]  R5        1
    x_kij[0,4,3]  R6        -1
    x_kij[0,4,3]  R13       -1
    x_kij[0,4,3]  R24       1
    x_kij[0,4,3]  R72       100000
    x_kij[0,4,4]  R14       -1
    x_kij[0,4,4]  R25       1
    x_kij[0,4,5]  OBJ       7
    x_kij[0,4,5]  R6        -1
    x_kij[0,4,5]  R7        1
    x_kij[0,4,5]  R15       -1
    x_kij[0,4,5]  R26       1
    x_kij[0,4,5]  R73       100000
    x_kij[0,4,6]  OBJ       8
    x_kij[0,4,6]  R6        -1
    x_kij[0,4,6]  R8        1
    x_kij[0,4,6]  R16       -1
    x_kij[0,4,6]  R27       1
    x_kij[0,4,6]  R74       100000
    x_kij[0,4,7]  OBJ       6
    x_kij[0,4,7]  R1        1
    x_kij[0,4,7]  R9        1
    x_kij[0,4,7]  R17       -1
    x_kij[0,4,7]  R28       1
    x_kij[0,4,7]  R75       100000
    x_kij[0,5,0]  OBJ       100
    x_kij[0,5,0]  R2        1
    x_kij[0,5,0]  R7        -1
    x_kij[0,5,0]  R10       -1
    x_kij[0,5,0]  R21       1
    x_kij[0,5,0]  R76       100000
    x_kij[0,5,1]  OBJ       15
    x_kij[0,5,1]  R3        1
    x_kij[0,5,1]  R7        -1
    x_kij[0,5,1]  R11       -1
    x_kij[0,5,1]  R22       1
    x_kij[0,5,1]  R77       100000
    x_kij[0,5,2]  OBJ       100
    x_kij[0,5,2]  R4        1
    x_kij[0,5,2]  R7        -1
    x_kij[0,5,2]  R12       -1
    x_kij[0,5,2]  R23       1
    x_kij[0,5,2]  R78       100000
    x_kij[0,5,3]  OBJ       7
    x_kij[0,5,3]  R5        1
    x_kij[0,5,3]  R7        -1
    x_kij[0,5,3]  R13       -1
    x_kij[0,5,3]  R24       1
    x_kij[0,5,3]  R79       100000
    x_kij[0,5,4]  OBJ       7
    x_kij[0,5,4]  R6        1
    x_kij[0,5,4]  R7        -1
    x_kij[0,5,4]  R14       -1
    x_kij[0,5,4]  R25       1
    x_kij[0,5,4]  R80       100000
    x_kij[0,5,5]  R15       -1
    x_kij[0,5,5]  R26       1
    x_kij[0,5,6]  OBJ       4
    x_kij[0,5,6]  R7        -1
    x_kij[0,5,6]  R8        1
    x_kij[0,5,6]  R16       -1
    x_kij[0,5,6]  R27       1
    x_kij[0,5,6]  R81       100000
    x_kij[0,5,7]  OBJ       100
    x_kij[0,5,7]  R1        1
    x_kij[0,5,7]  R9        1
    x_kij[0,5,7]  R17       -1
    x_kij[0,5,7]  R28       1
    x_kij[0,5,7]  R82       100000
    x_kij[0,6,0]  OBJ       100
    x_kij[0,6,0]  R2        1
    x_kij[0,6,0]  R8        -1
    x_kij[0,6,0]  R10       -1
    x_kij[0,6,0]  R21       1
    x_kij[0,6,0]  R83       100000
    x_kij[0,6,1]  OBJ       100
    x_kij[0,6,1]  R3        1
    x_kij[0,6,1]  R8        -1
    x_kij[0,6,1]  R11       -1
    x_kij[0,6,1]  R22       1
    x_kij[0,6,1]  R84       100000
    x_kij[0,6,2]  OBJ       100
    x_kij[0,6,2]  R4        1
    x_kij[0,6,2]  R8        -1
    x_kij[0,6,2]  R12       -1
    x_kij[0,6,2]  R23       1
    x_kij[0,6,2]  R85       100000
    x_kij[0,6,3]  OBJ       15
    x_kij[0,6,3]  R5        1
    x_kij[0,6,3]  R8        -1
    x_kij[0,6,3]  R13       -1
    x_kij[0,6,3]  R24       1
    x_kij[0,6,3]  R86       100000
    x_kij[0,6,4]  OBJ       8
    x_kij[0,6,4]  R6        1
    x_kij[0,6,4]  R8        -1
    x_kij[0,6,4]  R14       -1
    x_kij[0,6,4]  R25       1
    x_kij[0,6,4]  R87       100000
    x_kij[0,6,5]  OBJ       4
    x_kij[0,6,5]  R7        1
    x_kij[0,6,5]  R8        -1
    x_kij[0,6,5]  R15       -1
    x_kij[0,6,5]  R26       1
    x_kij[0,6,5]  R88       100000
    x_kij[0,6,6]  R16       -1
    x_kij[0,6,6]  R27       1
    x_kij[0,6,7]  OBJ       5
    x_kij[0,6,7]  R1        1
    x_kij[0,6,7]  R9        1
    x_kij[0,6,7]  R17       -1
    x_kij[0,6,7]  R28       1
    x_kij[0,6,7]  R89       100000
    x_kij[0,7,0]  OBJ       100
    x_kij[0,7,0]  R2        1
    x_kij[0,7,0]  R9        -1
    x_kij[0,7,0]  R21       1
    x_kij[0,7,0]  R90       100000
    x_kij[0,7,1]  OBJ       100
    x_kij[0,7,1]  R3        1
    x_kij[0,7,1]  R9        -1
    x_kij[0,7,1]  R22       1
    x_kij[0,7,1]  R91       100000
    x_kij[0,7,2]  OBJ       100
    x_kij[0,7,2]  R4        1
    x_kij[0,7,2]  R9        -1
    x_kij[0,7,2]  R23       1
    x_kij[0,7,2]  R92       100000
    x_kij[0,7,3]  OBJ       100
    x_kij[0,7,3]  R5        1
    x_kij[0,7,3]  R9        -1
    x_kij[0,7,3]  R24       1
    x_kij[0,7,3]  R93       100000
    x_kij[0,7,4]  OBJ       6
    x_kij[0,7,4]  R6        1
    x_kij[0,7,4]  R9        -1
    x_kij[0,7,4]  R25       1
    x_kij[0,7,4]  R94       100000
    x_kij[0,7,5]  OBJ       100
    x_kij[0,7,5]  R7        1
    x_kij[0,7,5]  R9        -1
    x_kij[0,7,5]  R26       1
    x_kij[0,7,5]  R95       100000
    x_kij[0,7,6]  OBJ       5
    x_kij[0,7,6]  R8        1
    x_kij[0,7,6]  R9        -1
    x_kij[0,7,6]  R27       1
    x_kij[0,7,6]  R96       100000
    x_kij[0,7,7]  R9        1
    x_kij[0,7,7]  R28       1
    z_i[1]    R18       -1
    z_i[2]    R19       -1
    z_i[3]    R20       -1
    MARKER    'MARKER'                 'INTEND'
    t_ki[0,0]  R41       1
    t_ki[0,0]  R42       1
    t_ki[0,0]  R43       1
    t_ki[0,0]  R44       1
    t_ki[0,0]  R45       1
    t_ki[0,0]  R46       1
    t_ki[0,0]  R47       1
    t_ki[0,0]  R48       -1
    t_ki[0,0]  R55       -1
    t_ki[0,0]  R62       -1
    t_ki[0,0]  R69       -1
    t_ki[0,0]  R76       -1
    t_ki[0,0]  R83       -1
    t_ki[0,0]  R90       -1
    t_ki[0,0]  R108      -1
    t_ki[0,1]  R38       1
    t_ki[0,1]  R41       -1
    t_ki[0,1]  R48       1
    t_ki[0,1]  R49       1
    t_ki[0,1]  R50       1
    t_ki[0,1]  R51       1
    t_ki[0,1]  R52       1
    t_ki[0,1]  R53       1
    t_ki[0,1]  R54       1
    t_ki[0,1]  R56       -1
    t_ki[0,1]  R63       -1
    t_ki[0,1]  R70       -1
    t_ki[0,1]  R77       -1
    t_ki[0,1]  R84       -1
    t_ki[0,1]  R91       -1
    t_ki[0,1]  R105      -1
    t_ki[0,2]  R39       1
    t_ki[0,2]  R42       -1
    t_ki[0,2]  R49       -1
    t_ki[0,2]  R55       1
    t_ki[0,2]  R56       1
    t_ki[0,2]  R57       1
    t_ki[0,2]  R58       1
    t_ki[0,2]  R59       1
    t_ki[0,2]  R60       1
    t_ki[0,2]  R61       1
    t_ki[0,2]  R64       -1
    t_ki[0,2]  R71       -1
    t_ki[0,2]  R78       -1
    t_ki[0,2]  R85       -1
    t_ki[0,2]  R92       -1
    t_ki[0,2]  R106      -1
    t_ki[0,3]  R40       1
    t_ki[0,3]  R43       -1
    t_ki[0,3]  R50       -1
    t_ki[0,3]  R57       -1
    t_ki[0,3]  R62       1
    t_ki[0,3]  R63       1
    t_ki[0,3]  R64       1
    t_ki[0,3]  R65       1
    t_ki[0,3]  R66       1
    t_ki[0,3]  R67       1
    t_ki[0,3]  R68       1
    t_ki[0,3]  R72       -1
    t_ki[0,3]  R79       -1
    t_ki[0,3]  R86       -1
    t_ki[0,3]  R93       -1
    t_ki[0,3]  R107      -1
    t_ki[0,4]  R38       -1
    t_ki[0,4]  R44       -1
    t_ki[0,4]  R51       -1
    t_ki[0,4]  R58       -1
    t_ki[0,4]  R65       -1
    t_ki[0,4]  R69       1
    t_ki[0,4]  R70       1
    t_ki[0,4]  R71       1
    t_ki[0,4]  R72       1
    t_ki[0,4]  R73       1
    t_ki[0,4]  R74       1
    t_ki[0,4]  R75       1
    t_ki[0,4]  R80       -1
    t_ki[0,4]  R87       -1
    t_ki[0,4]  R94       -1
    t_ki[0,4]  R97       1
    t_ki[0,4]  R100      1
    t_ki[0,4]  R105      1
    t_ki[0,5]  R39       -1
    t_ki[0,5]  R45       -1
    t_ki[0,5]  R52       -1
    t_ki[0,5]  R59       -1
    t_ki[0,5]  R66       -1
    t_ki[0,5]  R73       -1
    t_ki[0,5]  R76       1
    t_ki[0,5]  R77       1
    t_ki[0,5]  R78       1
    t_ki[0,5]  R79       1
    t_ki[0,5]  R80       1
    t_ki[0,5]  R81       1
    t_ki[0,5]  R82       1
    t_ki[0,5]  R88       -1
    t_ki[0,5]  R95       -1
    t_ki[0,5]  R98       1
    t_ki[0,5]  R101      1
    t_ki[0,5]  R106      1
    t_ki[0,6]  R40       -1
    t_ki[0,6]  R46       -1
    t_ki[0,6]  R53       -1
    t_ki[0,6]  R60       -1
    t_ki[0,6]  R67       -1
    t_ki[0,6]  R74       -1
    t_ki[0,6]  R81       -1
    t_ki[0,6]  R83       1
    t_ki[0,6]  R84       1
    t_ki[0,6]  R85       1
    t_ki[0,6]  R86       1
    t_ki[0,6]  R87       1
    t_ki[0,6]  R88       1
    t_ki[0,6]  R89       1
    t_ki[0,6]  R96       -1
    t_ki[0,6]  R99       1
    t_ki[0,6]  R102      1
    t_ki[0,6]  R107      1
    t_ki[0,7]  R47       -1
    t_ki[0,7]  R54       -1
    t_ki[0,7]  R61       -1
    t_ki[0,7]  R68       -1
    t_ki[0,7]  R75       -1
    t_ki[0,7]  R82       -1
    t_ki[0,7]  R89       -1
    t_ki[0,7]  R90       1
    t_ki[0,7]  R91       1
    t_ki[0,7]  R92       1
    t_ki[0,7]  R93       1
    t_ki[0,7]  R94       1
    t_ki[0,7]  R95       1
    t_ki[0,7]  R96       1
    t_ki[0,7]  R103      1
    t_ki[0,7]  R104      1
    t_ki[0,7]  R108      1
RHS
    RHS1      R0        1
    RHS1      R1        1
    RHS1      R21       1
    RHS1      R22       1
    RHS1      R23       1
    RHS1      R24       1
    RHS1      R25       1
    RHS1      R26       1
    RHS1      R27       1
    RHS1      R28       1
    RHS1      R29       1
    RHS1      R30       1
    RHS1      R31       1
    RHS1      R32       1
    RHS1      R33       1
    RHS1      R34       1
    RHS1      R35       1
    RHS1      R36       1
    RHS1      R37       1
    RHS1      R38       -100
    RHS1      R39       -100
    RHS1      R40       -15
    RHS1      R41       99994
    RHS1      R42       99992
    RHS1      R43       99988
    RHS1      R44       99900
    RHS1      R45       99900
    RHS1      R46       99900
    RHS1      R47       99900
    RHS1      R48       99994
    RHS1      R49       99993
    RHS1      R50       99995
    RHS1      R51       99900
    RHS1      R52       99985
    RHS1      R53       99900
    RHS1      R54       99900
    RHS1      R55       99992
    RHS1      R56       99993
    RHS1      R57       99996
    RHS1      R58       99985
    RHS1      R59       99900
    RHS1      R60       99900
    RHS1      R61       99900
    RHS1      R62       99988
    RHS1      R63       99995
    RHS1      R64       99996
    RHS1      R65       99990
    RHS1      R66       99993
    RHS1      R67       99985
    RHS1      R68       99900
    RHS1      R69       99900
    RHS1      R70       99900
    RHS1      R71       99985
    RHS1      R72       99990
    RHS1      R73       99993
    RHS1      R74       99992
    RHS1      R75       99994
    RHS1      R76       99900
    RHS1      R77       99985
    RHS1      R78       99900
    RHS1      R79       99993
    RHS1      R80       99993
    RHS1      R81       99996
    RHS1      R82       99900
    RHS1      R83       99900
    RHS1      R84       99900
    RHS1      R85       99900
    RHS1      R86       99985
    RHS1      R87       99992
    RHS1      R88       99996
    RHS1      R89       99995
    RHS1      R90       99900
    RHS1      R91       99900
    RHS1      R92       99900
    RHS1      R93       99900
    RHS1      R94       99994
    RHS1      R95       99900
    RHS1      R96       99995
    RHS1      R97       5
    RHS1      R98       5
    RHS1      R99       5
    RHS1      R100      14000
    RHS1      R101      14000
    RHS1      R102      14000
    RHS1      R103      5
    RHS1      R104      14000
    RHS1      R105      100
    RHS1      R106      100
    RHS1      R107      100
    RHS1      R108      100
    RHS1      R109      4
BOUNDS
 BV BND1      x_kij[0,0,0]
 BV BND1      x_kij[0,0,1]
 BV BND1      x_kij[0,0,2]
 BV BND1      x_kij[0,0,3]
 BV BND1      x_kij[0,0,4]
 BV BND1      x_kij[0,0,5]
 BV BND1      x_kij[0,0,6]
 BV BND1      x_kij[0,0,7]
 BV BND1      x_kij[0,1,0]
 BV BND1      x_kij[0,1,1]
 BV BND1      x_kij[0,1,2]
 BV BND1      x_kij[0,1,3]
 BV BND1      x_kij[0,1,4]
 BV BND1      x_kij[0,1,5]
 BV BND1      x_kij[0,1,6]
 BV BND1      x_kij[0,1,7]
 BV BND1      x_kij[0,2,0]
 BV BND1      x_kij[0,2,1]
 BV BND1      x_kij[0,2,2]
 BV BND1      x_kij[0,2,3]
 BV BND1      x_kij[0,2,4]
 BV BND1      x_kij[0,2,5]
 BV BND1      x_kij[0,2,6]
 BV BND1      x_kij[0,2,7]
 BV BND1      x_kij[0,3,0]
 BV BND1      x_kij[0,3,1]
 BV BND1      x_kij[0,3,2]
 BV BND1      x_kij[0,3,3]
 BV BND1      x_kij[0,3,4]
 BV BND1      x_kij[0,3,5]
 BV BND1      x_kij[0,3,6]
 BV BND1      x_kij[0,3,7]
 BV BND1      x_kij[0,4,0]
 BV BND1      x_kij[0,4,1]
 BV BND1      x_kij[0,4,2]
 BV BND1      x_kij[0,4,3]
 BV BND1      x_kij[0,4,4]
 BV BND1      x_kij[0,4,5]
 BV BND1      x_kij[0,4,6]
 BV BND1      x_kij[0,4,7]
 BV BND1      x_kij[0,5,0]
 BV BND1      x_kij[0,5,1]
 BV BND1      x_kij[0,5,2]
 BV BND1      x_kij[0,5,3]
 BV BND1      x_kij[0,5,4]
 BV BND1      x_kij[0,5,5]
 BV BND1      x_kij[0,5,6]
 BV BND1      x_kij[0,5,7]
 BV BND1      x_kij[0,6,0]
 BV BND1      x_kij[0,6,1]
 BV BND1      x_kij[0,6,2]
 BV BND1      x_kij[0,6,3]
 BV BND1      x_kij[0,6,4]
 BV BND1      x_kij[0,6,5]
 BV BND1      x_kij[0,6,6]
 BV BND1      x_kij[0,6,7]
 BV BND1      x_kij[0,7,0]
 BV BND1      x_kij[0,7,1]
 BV BND1      x_kij[0,7,2]
 BV BND1      x_kij[0,7,3]
 BV BND1      x_kij[0,7,4]
 BV BND1      x_kij[0,7,5]
 BV BND1      x_kij[0,7,6]
 BV BND1      x_kij[0,7,7]
 BV BND1      z_i[1]  
 BV BND1      z_i[2]  
 BV BND1      z_i[3]  
ENDATA
